
  32    4
  10   10   10   10

   0   0   0   0   0   1 2 
   5   1   1   1   0   1 3 
   7   0   4   4   1   1 4 
   5   2   4   2   0   1 5 
   3   4   5   0   7   1 6 
   1   0   6   3   6   1 7 
   4   4   0   8   2   3 26 16 8 
   3   5   7   0   1   1 9 
  10   4   0   5   3   2 15 10 
   3   7   3   0   2   1 11 
   9   0   2   2   2   1 12 
   4   0   6   4   2   1 13 
   2   1   5   4   0   1 14 
   6   4   0   5   5   1 17 
   2   2   4   0   5   1 17 
   1  10   5   3   0   1 17 
   5   4   3   0   2   1 18 
   4   1   2   0   5   1 19 
   2   2   0   1   6   1 20 
   2   0   2   4   4   1 21 
   9   0   5   5   4   1 22 
   5   0   6   5   5   1 23 
   4   0   5   3   3   1 24 
   2   0   5   2   3   1 25 
   7   5   0   7   6   1 27 
   4   5   0   2   7   1 27 
   5   0   3   7   3   1 28 
  10   0   3   5   4   1 29 
  10   6   4   4   0   1 30 
   5   0   2   2   8   1 31 
   9   5   0   8   4   1 32
   0   0   0   0   0   0 
